
Gurobi 11.0.1 (win64) logging started Mon May 13 15:39:38 2024

Set parameter LogFile to value "output/solver_log23.txt"
Gurobi Optimizer version 11.0.1 build v11.0.1rc0 (win64 - Windows 11.0 (22631.2))

CPU model: 11th Gen Intel(R) Core(TM) i7-1165G7 @ 2.80GHz, instruction set [SSE2|AVX|AVX2|AVX512]
Thread count: 4 physical cores, 8 logical processors, using up to 8 threads

Optimize a model with 2689 rows, 653 columns and 49753 nonzeros
Model fingerprint: 0xfeb63de6
Variable types: 248 continuous, 405 integer (405 binary)
Coefficient statistics:
  Matrix range     [4e-01, 1e+05]
  Objective range  [1e+00, 1e+02]
  Bounds range     [1e+00, 1e+00]
  RHS range        [1e-02, 1e+05]

User MIP start produced solution with objective 75857.7 (0.00s)
User MIP start produced solution with objective 75857.7 (0.00s)
Loaded user MIP start with objective 75857.7

Presolve removed 254 rows and 227 columns
Presolve time: 0.05s
Presolved: 2435 rows, 426 columns, 47334 nonzeros
Variable types: 231 continuous, 195 integer (192 binary)

Root relaxation: objective 7.635679e+04, 654 iterations, 0.04 seconds (0.07 work units)

    Nodes    |    Current Node    |     Objective Bounds      |     Work
 Expl Unexpl |  Obj  Depth IntInf | Incumbent    BestBd   Gap | It/Node Time

     0     0 76356.7909    0    5 75857.7258 76356.7909  0.66%     -    0s
     0     0 76078.1565    0    5 75857.7258 76078.1565  0.29%     -    0s
     0     0 76054.6893    0    5 75857.7258 76054.6893  0.26%     -    0s
     0     0 76054.6893    0    7 75857.7258 76054.6893  0.26%     -    0s
     0     0 76026.0860    0    7 75857.7258 76026.0860  0.22%     -    0s
     0     2 76026.0860    0    7 75857.7258 76026.0860  0.22%     -    0s
 35678    44 75899.8841    0    5 75857.7258 75899.8841  0.06%   1.0    5s

Explored 37769 nodes (62055 simplex iterations) in 8.55 seconds (13.50 work units)
Thread count was 8 (of 8 available processors)

Solution count 2: 75857.7 75857.7 

Optimal solution found (tolerance 1.00e-04)
Best objective 7.585772579555e+04, best bound 7.585772579555e+04, gap 0.0000%
